(set-option :print-success false)
(set-logic QF_UF)
(declare-sort x112 0)
(declare-sort x129 0)
(declare-fun x95 () x129)
(declare-fun x158 () x129)
(declare-fun x102 () x129)
(declare-fun x13 (x129 x129) x129)
(declare-fun x56 () x129)
(declare-fun x7 () x129)
(assert (and (and (not (= x158 x102)) (and (and (and (not (= x56 x7)) (and (not (= x102 x7)) (and (not (= x158 x95)) (and (not (= x56 x95)) (and (not (= x7 x95)) (not (= x95 x102))))))) (not (= x7 x158))) (not (= x56 x102)))) (not (= x56 x158))))
(assert (not (and (= x102 (x13 x56 x7)) (and (= (x13 x158 x158) x7) (and (= (x13 x95 x95) x56) (= (x13 x56 x95) x158))))))
(assert (not (and (and (= x7 (x13 x56 x56)) (and (= x95 (x13 x158 x158)) (= x56 (x13 x95 x158)))) (= (x13 x95 x7) x102))))
(assert (not (and (= (x13 x102 x95) x56) (and (and (= x102 (x13 x7 x7)) (= (x13 x102 x7) x158)) (= x95 (x13 x158 x158))))))
(assert (not (and (and (= (x13 x158 x158) x102) (and (= (x13 x95 x56) x158) (= (x13 x56 x56) x95))) (= x7 (x13 x95 x102)))))
(assert (not (and (= (x13 x158 x7) x56) (and (and (= (x13 x158 x102) x95) (= x158 (x13 x102 x102))) (= (x13 x95 x95) x7)))))
(assert (or (and (not (= x158 (x13 (x13 x158 x158) x158))) (and (not (= (x13 (x13 x56 x158) x56) x158)) (and (and (not (= x158 (x13 (x13 x7 x158) x7))) (not (= (x13 (x13 x95 x158) x95) x158))) (not (= (x13 (x13 x102 x158) x102) x158))))) (or (or (or (and (and (and (and (not (= x95 (x13 (x13 x7 x95) x7))) (not (= x95 (x13 (x13 x95 x95) x95)))) (not (= x95 (x13 (x13 x102 x95) x102)))) (not (= (x13 (x13 x56 x95) x56) x95))) (not (= x95 (x13 (x13 x158 x95) x158)))) (and (and (not (= x7 (x13 (x13 x56 x7) x56))) (and (and (not (= x7 (x13 (x13 x95 x7) x95))) (not (= (x13 (x13 x7 x7) x7) x7))) (not (= x7 (x13 (x13 x102 x7) x102))))) (not (= x7 (x13 (x13 x158 x7) x158))))) (and (and (not (= x102 (x13 (x13 x56 x102) x56))) (and (and (not (= x102 (x13 (x13 x7 x102) x7))) (not (= (x13 (x13 x95 x102) x95) x102))) (not (= (x13 (x13 x102 x102) x102) x102)))) (not (= (x13 (x13 x158 x102) x158) x102)))) (and (and (not (= (x13 (x13 x56 x56) x56) x56)) (and (and (not (= x56 (x13 (x13 x95 x56) x95))) (not (= x56 (x13 (x13 x7 x56) x7)))) (not (= (x13 (x13 x102 x56) x102) x56)))) (not (= (x13 (x13 x158 x56) x158) x56))))))
(assert (not (and (= x102 (x13 x7 x56)) (and (and (= x7 (x13 x158 x158)) (= x95 (x13 x7 x158))) (= (x13 x95 x95) x56)))))
(assert (not (and (= (x13 x56 x102) x95) (and (and (= x56 (x13 x158 x158)) (= x7 (x13 x56 x158))) (= x102 (x13 x7 x7))))))
(assert (not (and (and (and (= x7 (x13 x102 x102)) (= (x13 x7 x102) x95)) (= (x13 x95 x95) x56)) (= x158 (x13 x7 x56)))))
(assert (not (and (= x7 (x13 x95 x102)) (and (= (x13 x56 x56) x102) (and (= x95 (x13 x158 x158)) (= (x13 x95 x158) x56))))))
(assert (not (and (and (and (= (x13 x102 x158) x56) (= x102 (x13 x158 x158))) (= x95 (x13 x56 x56))) (= x7 (x13 x102 x95)))))
(assert (not (and (and (and (= x95 (x13 x102 x7)) (= x102 (x13 x7 x7))) (= (x13 x95 x95) x56)) (= (x13 x102 x56) x158))))
(assert (let ((x126 (x13 x7 x102)) (x11 (x13 x56 x95)) (x71 (x13 x7 x7)) (x122 (x13 x95 x158)) (x17 (x13 x158 x95)) (x115 (x13 x56 x7)) (x142 (x13 x7 x158)) (x121 (x13 x158 x56)) (x12 (x13 x158 x102)) (x19 (x13 x7 x56)) (x36 (x13 x102 x7)) (x146 (x13 x56 x158)) (x5 (x13 x102 x102)) (x136 (x13 x102 x56)) (x67 (x13 x56 x102)) (x141 (x13 x158 x7)) (x65 (x13 x102 x95)) (x74 (x13 x95 x7)) (x68 (x13 x95 x56)) (x108 (x13 x7 x95)) (x131 (x13 x95 x95)) (x152 (x13 x158 x158)) (x133 (x13 x56 x56)) (x44 (x13 x102 x158)) (x9 (x13 x95 x102))) (and (and (and (not (= x152 x146)) (and (and (and (not (= x152 x142)) (and (not (= x142 x146)) (and (and (not (= x122 x152)) (and (and (not (= x142 x122)) (not (= x44 x122))) (not (= x146 x122)))) (not (= x142 x44))))) (not (= x146 x44))) (not (= x44 x152)))) (and (and (not (= x121 x133)) (and (and (and (not (= x19 x121)) (and (and (not (= x136 x19)) (and (and (and (not (= x19 x68)) (not (= x68 x136))) (not (= x68 x133))) (not (= x121 x68)))) (not (= x133 x19)))) (not (= x133 x136))) (not (= x121 x136)))) (and (and (and (and (not (= x141 x36)) (and (and (not (= x141 x71)) (and (not (= x71 x115)) (and (and (not (= x74 x141)) (and (not (= x74 x115)) (and (not (= x71 x74)) (not (= x74 x36))))) (not (= x71 x36))))) (not (= x36 x115)))) (not (= x115 x141))) (and (not (= x17 x11)) (and (and (not (= x11 x65)) (and (and (and (not (= x65 x108)) (and (not (= x131 x17)) (and (and (not (= x108 x131)) (not (= x65 x131))) (not (= x131 x11))))) (not (= x108 x11))) (not (= x17 x108)))) (not (= x17 x65))))) (and (and (not (= x12 x5)) (and (and (and (not (= x67 x126)) (and (and (not (= x9 x12)) (and (not (= x9 x67)) (and (not (= x9 x5)) (not (= x9 x126))))) (not (= x126 x5)))) (not (= x12 x126))) (not (= x67 x5)))) (not (= x67 x12)))))) (and (and (and (not (= x146 x133)) (and (and (and (and (not (= x115 x133)) (and (not (= x67 x115)) (and (and (not (= x133 x11)) (and (not (= x11 x115)) (not (= x11 x67)))) (not (= x11 x146))))) (not (= x146 x115))) (not (= x67 x133))) (not (= x67 x146)))) (and (and (and (not (= x68 x122)) (and (and (not (= x68 x9)) (and (and (and (and (and (not (= x131 x68)) (and (not (= x131 x74)) (not (= x9 x131)))) (not (= x131 x122))) (not (= x9 x74))) (not (= x74 x68))) (not (= x74 x122)))) (not (= x122 x9)))) (and (and (not (= x142 x126)) (and (not (= x126 x19)) (and (not (= x71 x142)) (and (and (not (= x71 x126)) (and (and (and (not (= x108 x71)) (not (= x126 x108))) (not (= x19 x108))) (not (= x108 x142)))) (not (= x71 x19)))))) (not (= x142 x19)))) (and (and (not (= x5 x44)) (and (not (= x136 x5)) (and (not (= x36 x44)) (and (not (= x36 x136)) (and (and (and (and (not (= x5 x65)) (not (= x65 x36))) (not (= x65 x136))) (not (= x65 x44))) (not (= x5 x36))))))) (not (= x136 x44))))) (and (not (= x152 x121)) (and (not (= x152 x12)) (and (not (= x121 x12)) (and (not (= x152 x141)) (and (not (= x121 x141)) (and (and (and (not (= x17 x121)) (and (not (= x17 x12)) (not (= x141 x17)))) (not (= x152 x17))) (not (= x12 x141))))))))))))
(assert (not (and (= x95 (x13 x102 x56)) (and (= x56 (x13 x158 x158)) (and (= (x13 x102 x7) x158) (= x102 (x13 x7 x7)))))))
(assert (not (and (= (x13 x158 x95) x7) (and (and (= (x13 x102 x102) x158) (= (x13 x158 x102) x56)) (= x95 (x13 x56 x56))))))
(assert (not (and (= (x13 x7 x102) x158) (and (= x102 (x13 x95 x95)) (and (= x95 (x13 x7 x56)) (= (x13 x56 x56) x7))))))
(assert (not (and (= x56 (x13 x95 x102)) (and (and (= (x13 x95 x7) x158) (= (x13 x7 x7) x95)) (= (x13 x158 x158) x102)))))
(assert (not (and (and (and (= (x13 x102 x7) x56) (= (x13 x7 x7) x102)) (= x158 (x13 x56 x56))) (= (x13 x102 x158) x95))))
(assert (not (and (and (and (= x158 (x13 x95 x7)) (= (x13 x7 x7) x95)) (= (x13 x158 x158) x56)) (= x102 (x13 x95 x56)))))
(assert (not (and (= (x13 x95 x56) x7) (and (and (= x158 (x13 x95 x102)) (= (x13 x102 x102) x95)) (= x56 (x13 x158 x158))))))
(assert (not (and (= x158 (x13 x102 x95)) (and (and (= x102 (x13 x56 x56)) (= x7 (x13 x102 x56))) (= x95 (x13 x7 x7))))))
(assert (not (and (and (= x56 (x13 x102 x102)) (and (= x7 (x13 x95 x95)) (= (x13 x7 x95) x102))) (= (x13 x7 x56) x158))))
(assert (not (and (= x7 (x13 x56 x95)) (and (= x95 (x13 x102 x102)) (and (= (x13 x56 x158) x102) (= (x13 x158 x158) x56))))))
(assert (not (and (= (x13 x102 x158) x95) (and (= (x13 x7 x7) x158) (and (= x7 (x13 x102 x56)) (= x102 (x13 x56 x56)))))))
(assert (or (= x158 (x13 (x13 x158 x158) x158)) (or (= (x13 (x13 x56 x56) x56) x56) (or (= x102 (x13 (x13 x102 x102) x102)) (or (= x7 (x13 (x13 x7 x7) x7)) (= x95 (x13 (x13 x95 x95) x95)))))))
(assert (let ((x142 (x13 x7 x158)) (x151 (x13 x158 x7)) (x100 (x13 x158 x56)) (x50 (x13 x158 x158)) (x17 (x13 x95 x56)) (x74 (x13 x95 x158)) (x64 (x13 x102 x102)) (x115 (x13 x102 x95)) (x65 (x13 x95 x7)) (x121 (x13 x7 x102)) (x108 (x13 x95 x95)) (x122 (x13 x7 x56)) (x11 (x13 x95 x102)) (x141 (x13 x56 x95)) (x60 (x13 x56 x56)) (x83 (x13 x56 x158)) (x48 (x13 x56 x102)) (x69 (x13 x158 x102)) (x114 (x13 x102 x158)) (x36 (x13 x7 x95)) (x9 (x13 x158 x95)) (x156 (x13 x56 x7)) (x133 (x13 x7 x7)) (x25 (x13 x102 x56)) (x152 (x13 x102 x7))) (let ((x26 (= x56 x133)) (x132 (= x158 x25)) (x37 (= x56 x64)) (x137 (= x158 x65)) (x68 (= x65 x95)) (x94 (= x9 x158)) (x118 (= x142 x102)) (x97 (= x95 x121)) (x77 (= x115 x102)) (x105 (= x156 x95)) (x127 (= x142 x56)) (x143 (= x7 x50)) (x85 (= x95 x83)) (x3 (= x114 x102)) (x31 (= x141 x7)) (x35 (= x56 x121)) (x84 (= x56 x25)) (x62 (= x56 x69)) (x43 (= x158 x60)) (x153 (= x102 x83)) (x34 (= x7 x60)) (x14 (= x7 x64)) (x75 (= x158 x122)) (x24 (= x56 x114)) (x88 (= x121 x7)) (x113 (= x25 x7)) (x72 (= x7 x100)) (x79 (= x7 x142)) (x145 (= x122 x102)) (x146 (= x133 x7)) (x101 (= x17 x95)) (x20 (= x114 x95)) (x109 (= x102 x133)) (x155 (= x122 x56)) (x52 (= x156 x56)) (x134 (= x74 x56)) (x21 (= x152 x158)) (x90 (= x95 x48)) (x73 (= x11 x95)) (x61 (= x7 x69)) (x27 (= x25 x95)) (x59 (= x83 x7)) (x131 (= x95 x108)) (x140 (= x151 x7)) (x111 (= x83 x158)) (x139 (= x74 x7)) (x106 (= x95 x50)) (x66 (= x95 x115)) (x40 (= x56 x152)) (x41 (= x151 x158)) (x99 (= x121 x158)) (x28 (= x7 x114)) (x80 (= x102 x11)) (x120 (= x64 x158)) (x58 (= x102 x48)) (x81 (= x60 x102)) (x38 (= x56 x60)) (x12 (= x36 x95)) (x23 (= x56 x17)) (x147 (= x25 x102)) (x19 (= x133 x95)) (x76 (= x69 x95)) (x150 (= x121 x102)) (x91 (= x9 x7)) (x148 (= x152 x95)) (x149 (= x65 x102)) (x82 (= x95 x60)) (x55 (= x156 x102)) (x126 (= x108 x102)) (x92 (= x142 x158)) (x42 (= x11 x158)) (x70 (= x56 x50)) (x5 (= x56 x108)) (x63 (= x17 x102)) (x29 (= x95 x9)) (x117 (= x141 x56)) (x144 (= x102 x151)) (x30 (= x100 x95)) (x44 (= x7 x65)) (x33 (= x95 x122)) (x39 (= x156 x7)) (x157 (= x56 x48)) (x125 (= x102 x36)) (x138 (= x102 x141)) (x2 (= x151 x56)) (x4 (= x48 x158)) (x67 (= x158 x108)) (x32 (= x95 x151)) (x57 (= x158 x141)) (x54 (= x100 x102)) (x53 (= x158 x114)) (x15 (= x56 x9)) (x18 (= x7 x152)) (x124 (= x102 x74)) (x51 (= x115 x7)) (x96 (= x64 x95)) (x110 (= x74 x158)) (x6 (= x11 x7)) (x49 (= x115 x56)) (x71 (= x7 x108)) (x16 (= x142 x95)) (x1 (= x11 x56)) (x89 (= x158 x36)) (x22 (= x95 x74)) (x154 (= x64 x102)) (x116 (= x158 x156)) (x123 (= x7 x48)) (x45 (= x17 x7)) (x128 (= x100 x56)) (x86 (= x158 x50)) (x46 (= x158 x100)) (x104 (= x50 x102)) (x103 (= x56 x36)) (x87 (= x102 x9)) (x119 (= x102 x69)) (x10 (= x56 x83)) (x136 (= x7 x36)) (x98 (= x152 x102)) (x8 (= x133 x158)) (x78 (= x158 x69)) (x130 (= x115 x158)) (x47 (= x95 x141)) (x93 (= x17 x158)) (x107 (= x122 x7)) (x135 (= x65 x56))) (and (and (and (and (and (and (and (or (or (or x49 (or x103 x5)) x117) x15) (or (or (or x1 (or x135 x5)) x23) x134)) (and (and (or (or x63 (or (or x149 x126) x80)) x124) (or (or x138 (or (or x126 x125) x77)) x87)) (and (and (or x139 (or x45 (or (or x71 x44) x6))) (or (or (or (or x71 x136) x51) x31) x91)) (and (or (or x47 (or x66 (or x12 x131))) x29) (or (or x101 (or (or x68 x131) x73)) x22))))) (and (or (or (or x42 (or x67 x137)) x93) x110) (or (or x57 (or (or x89 x67) x130)) x94))) (and (and (or (or x75 (or x99 (or x8 x89))) x92) (or (or (or (or x137 x8) x21) x116) x41)) (and (and (and (or (or x55 (or (or x109 x149) x98)) x144) (or (or (or (or x109 x125) x150) x145) x118)) (and (and (or (or (or x148 (or x68 x19)) x105) x32) (or (or (or x97 (or x12 x19)) x33) x16)) (and (or x79 (or x107 (or x88 (or x146 x136)))) (or x140 (or (or x18 (or x146 x44)) x39))))) (and (or x127 (or x155 (or (or x103 x26) x35))) (or x2 (or (or (or x26 x135) x40) x52)))))) (and (and (or (or (or x120 (or x99 x42)) x4) x78) (or (or x132 (or (or x21 x130) x120)) x53)) (and (and (and (and (or (or x123 (or (or x6 x88) x14)) x61) (or (or (or x14 (or x51 x18)) x113) x28)) (and (or x76 (or (or (or x73 x97) x96) x90)) (or (or (or (or x148 x66) x96) x27) x20))) (and (or x3 (or (or (or x98 x77) x154) x147)) (or (or x58 (or (or x80 x150) x154)) x119))) (and (or (or (or (or x1 x35) x37) x157) x62) (or (or (or x37 (or x49 x40)) x84) x24))))) (and (and (or (or (or x4 (or x116 x57)) x43) x111) (or x46 (or x43 (or (or x93 x75) x132)))) (and (and (and (or x153 (or x81 (or x58 (or x55 x138)))) (or (or (or x147 (or x63 x145)) x81) x54)) (and (and (or x59 (or x34 (or (or x31 x39) x123))) (or (or x34 (or x113 (or x107 x45))) x72)) (and (or x85 (or x82 (or x90 (or x47 x105)))) (or x30 (or (or x27 (or x101 x33)) x82))))) (and (or (or (or x157 (or x52 x117)) x38) x10) (or x128 (or x38 (or x84 (or x23 x155)))))))) (and (and (or x86 (or (or (or x92 x110) x53) x111)) (or x86 (or x46 (or (or x94 x41) x78)))) (and (and (or (or (or (or x15 x2) x62) x128) x70) (or x70 (or x10 (or (or x134 x127) x24)))) (and (and (or x104 (or (or (or x118 x124) x3) x153)) (or (or (or (or x144 x87) x119) x54) x104)) (and (and (or x106 (or (or (or x22 x16) x20) x85)) (or x106 (or (or x76 (or x32 x29)) x30))) (and (or (or (or (or x79 x139) x28) x59) x143) (or (or x72 (or x61 (or x91 x140))) x143))))))))))
(assert (not (and (and (and (= (x13 x158 x7) x95) (= x158 (x13 x7 x7))) (= (x13 x95 x95) x102)) (= (x13 x158 x102) x56))))
(assert (not (and (= x95 (x13 x7 x102)) (and (= x102 (x13 x56 x56)) (and (= (x13 x158 x158) x7) (= (x13 x7 x158) x56))))))
(assert (not (and (and (= (x13 x102 x102) x95) (and (= (x13 x7 x7) x56) (= x102 (x13 x56 x7)))) (= (x13 x56 x95) x158))))
(assert (not (and (and (and (= x102 (x13 x158 x158)) (= x56 (x13 x102 x158))) (= (x13 x56 x56) x7)) (= x95 (x13 x102 x7)))))
(assert (and (and (and (not (= x102 (x13 x102 x102))) (and (not (= (x13 x95 x95) x95)) (not (= x7 (x13 x7 x7))))) (not (= (x13 x56 x56) x56))) (not (= x158 (x13 x158 x158)))))
(assert (let ((x126 (x13 x102 x7)) (x136 (x13 x56 x102)) (x36 (x13 x7 x102)) (x19 (x13 x56 x7)) (x121 (x13 x56 x158)) (x17 (x13 x95 x158)) (x141 (x13 x7 x158)) (x5 (x13 x102 x102)) (x122 (x13 x158 x95)) (x9 (x13 x102 x95)) (x11 (x13 x95 x56)) (x67 (x13 x102 x56)) (x133 (x13 x56 x56)) (x142 (x13 x158 x7)) (x68 (x13 x56 x95)) (x146 (x13 x158 x56)) (x12 (x13 x102 x158)) (x131 (x13 x95 x95)) (x74 (x13 x7 x95)) (x115 (x13 x7 x56)) (x44 (x13 x158 x102)) (x65 (x13 x95 x102)) (x71 (x13 x7 x7)) (x108 (x13 x95 x7)) (x152 (x13 x158 x158))) (and (and (and (and (and (and (and (and (or (or (or (= x131 x102) (or (= x131 x7) (= x131 x95))) (= x56 x131)) (= x131 x158)) (or (= x108 x158) (or (= x56 x108) (or (= x108 x102) (or (= x108 x95) (= x7 x108)))))) (or (or (or (= x65 x102) (or (= x65 x7) (= x95 x65))) (= x56 x65)) (= x158 x65))) (or (or (or (= x102 x11) (or (= x11 x95) (= x11 x7))) (= x11 x56)) (= x11 x158))) (or (= x17 x158) (or (or (= x102 x17) (or (= x7 x17) (= x95 x17))) (= x17 x56)))) (and (or (= x141 x158) (or (= x56 x141) (or (or (= x141 x7) (= x141 x95)) (= x102 x141)))) (and (and (or (or (= x56 x36) (or (= x102 x36) (or (= x36 x7) (= x95 x36)))) (= x158 x36)) (and (or (= x158 x71) (or (= x56 x71) (or (= x102 x71) (or (= x71 x95) (= x71 x7))))) (or (= x74 x158) (or (= x74 x56) (or (= x74 x102) (or (= x74 x95) (= x7 x74))))))) (or (or (= x56 x115) (or (= x102 x115) (or (= x7 x115) (= x95 x115)))) (= x115 x158))))) (and (or (or (or (= x102 x12) (or (= x95 x12) (= x12 x7))) (= x12 x56)) (= x158 x12)) (and (or (= x67 x158) (or (= x56 x67) (or (= x67 x102) (or (= x7 x67) (= x95 x67))))) (and (or (or (= x56 x5) (or (or (= x5 x7) (= x95 x5)) (= x5 x102))) (= x5 x158)) (and (or (or (or (or (= x126 x7) (= x126 x95)) (= x102 x126)) (= x126 x56)) (= x158 x126)) (or (= x158 x9) (or (or (= x9 x102) (or (= x7 x9) (= x9 x95))) (= x56 x9)))))))) (and (and (and (and (or (or (= x56 x19) (or (= x102 x19) (or (= x19 x95) (= x7 x19)))) (= x19 x158)) (or (or (= x56 x68) (or (= x68 x102) (or (= x68 x95) (= x68 x7)))) (= x158 x68))) (or (= x136 x158) (or (= x136 x56) (or (or (= x136 x7) (= x95 x136)) (= x102 x136))))) (or (= x133 x158) (or (or (or (= x133 x7) (= x133 x95)) (= x102 x133)) (= x133 x56)))) (or (= x121 x158) (or (or (= x102 x121) (or (= x121 x95) (= x7 x121))) (= x56 x121))))) (and (and (and (or (or (or (= x102 x44) (or (= x7 x44) (= x95 x44))) (= x56 x44)) (= x158 x44)) (and (or (or (= x56 x122) (or (= x122 x102) (or (= x122 x95) (= x122 x7)))) (= x158 x122)) (or (or (= x56 x142) (or (or (= x142 x95) (= x7 x142)) (= x102 x142))) (= x158 x142)))) (or (= x146 x158) (or (= x56 x146) (or (= x146 x102) (or (= x7 x146) (= x95 x146)))))) (or (= x152 x158) (or (or (or (= x7 x152) (= x152 x95)) (= x152 x102)) (= x56 x152)))))))
(assert (not (and (and (and (= (x13 x56 x7) x95) (= x56 (x13 x7 x7))) (= (x13 x95 x95) x158)) (= x102 (x13 x56 x158)))))
(assert (or (or (and (not (= (x13 x56 (x13 x56 x158)) x158)) (and (and (not (= x102 (x13 x56 (x13 x56 x102)))) (and (not (= x95 (x13 x56 (x13 x56 x95)))) (not (= x7 (x13 x56 (x13 x56 x7)))))) (not (= (x13 x56 (x13 x56 x56)) x56)))) (or (or (and (not (= (x13 x7 (x13 x7 x158)) x158)) (and (not (= x56 (x13 x7 (x13 x7 x56)))) (and (not (= x102 (x13 x7 (x13 x7 x102)))) (and (not (= x95 (x13 x7 (x13 x7 x95)))) (not (= x7 (x13 x7 (x13 x7 x7)))))))) (and (not (= (x13 x95 (x13 x95 x158)) x158)) (and (not (= x56 (x13 x95 (x13 x95 x56)))) (and (and (not (= x95 (x13 x95 (x13 x95 x95)))) (not (= (x13 x95 (x13 x95 x7)) x7))) (not (= (x13 x95 (x13 x95 x102)) x102)))))) (and (not (= x158 (x13 x102 (x13 x102 x158)))) (and (not (= (x13 x102 (x13 x102 x56)) x56)) (and (not (= x102 (x13 x102 (x13 x102 x102)))) (and (not (= x7 (x13 x102 (x13 x102 x7)))) (not (= (x13 x102 (x13 x102 x95)) x95)))))))) (and (not (= x158 (x13 x158 (x13 x158 x158)))) (and (and (and (not (= (x13 x158 (x13 x158 x7)) x7)) (not (= (x13 x158 (x13 x158 x95)) x95))) (not (= (x13 x158 (x13 x158 x102)) x102))) (not (= (x13 x158 (x13 x158 x56)) x56))))))
(assert (not (and (and (and (= (x13 x56 x56) x7) (= x102 (x13 x7 x56))) (= x95 (x13 x102 x102))) (= x158 (x13 x7 x95)))))
(assert (not (and (= x102 (x13 x158 x7)) (and (= (x13 x56 x56) x7) (and (= x56 (x13 x158 x95)) (= x158 (x13 x95 x95)))))))
(assert (not (and (and (= (x13 x56 x56) x102) (and (= (x13 x7 x7) x95) (= x56 (x13 x95 x7)))) (= x158 (x13 x95 x102)))))
(assert (not (and (and (= x56 (x13 x7 x7)) (and (= x95 (x13 x158 x158)) (= (x13 x95 x158) x7))) (= (x13 x95 x56) x102))))
(assert (not (and (and (and (= (x13 x56 x7) x158) (= x56 (x13 x7 x7))) (= x95 (x13 x158 x158))) (= x102 (x13 x56 x95)))))
(assert (not (and (= (x13 x56 x158) x7) (and (= x158 (x13 x95 x95)) (and (= x56 (x13 x102 x102)) (= x95 (x13 x56 x102)))))))
(assert (not (and (and (and (= x7 (x13 x158 x102)) (= x158 (x13 x102 x102))) (= (x13 x7 x7) x95)) (= x56 (x13 x158 x95)))))
(assert (not (and (and (= x158 (x13 x95 x95)) (and (= (x13 x102 x7) x95) (= (x13 x7 x7) x102))) (= (x13 x102 x158) x56))))
(assert (not (and (and (= x7 (x13 x95 x95)) (and (= (x13 x56 x158) x95) (= (x13 x158 x158) x56))) (= (x13 x56 x7) x102))))
(assert (not (and (= (x13 x95 x7) x158) (and (and (= (x13 x56 x56) x95) (= (x13 x95 x56) x102)) (= x7 (x13 x102 x102))))))
(assert (not (and (= (x13 x56 x7) x95) (and (= x7 (x13 x158 x158)) (and (= (x13 x102 x102) x56) (= x158 (x13 x56 x102)))))))
(assert (not (and (and (= (x13 x56 x56) x95) (and (= (x13 x7 x158) x56) (= x7 (x13 x158 x158)))) (= x102 (x13 x7 x95)))))
(assert (not (and (= x7 (x13 x102 x95)) (and (= x95 (x13 x158 x158)) (and (= x158 (x13 x102 x56)) (= x102 (x13 x56 x56)))))))
(assert (not (and (= (x13 x158 x56) x95) (and (and (= (x13 x7 x7) x158) (= (x13 x158 x7) x102)) (= (x13 x102 x102) x56)))))
(assert (not (and (and (and (= (x13 x95 x95) x7) (= (x13 x7 x95) x158)) (= (x13 x158 x158) x102)) (= (x13 x7 x102) x56))))
(assert (not (and (and (= x95 (x13 x158 x158)) (and (= x7 (x13 x56 x56)) (= x158 (x13 x7 x56)))) (= x102 (x13 x7 x95)))))
(assert (let ((x148 (x13 x7 x7)) (x18 (x13 x56 x7)) (x98 (x13 x56 x102)) (x125 (x13 x95 x7)) (x156 (x13 x95 x95)) (x99 (x13 x158 x56)) (x103 (x13 x102 x95)) (x51 (x13 x7 x56)) (x77 (x13 x102 x56)) (x137 (x13 x158 x95)) (x80 (x13 x102 x158)) (x64 (x13 x7 x158)) (x150 (x13 x158 x102)) (x48 (x13 x102 x102)) (x31 (x13 x158 x158)) (x42 (x13 x56 x158)) (x109 (x13 x95 x102)) (x97 (x13 x7 x102)) (x130 (x13 x56 x56)) (x96 (x13 x102 x7)) (x135 (x13 x95 x56)) (x149 (x13 x7 x95)) (x25 (x13 x158 x7)) (x89 (x13 x95 x158)) (x26 (x13 x56 x95))) (let ((x17 (not (= x95 x103))) (x5 (not (= x95 x51))) (x94 (not (= x137 x158))) (x14 (not (= x7 x97))) (x8 (not (= x149 x7))) (x84 (not (= x102 x150))) (x108 (not (= x149 x95))) (x44 (not (= x95 x99))) (x67 (not (= x98 x95))) (x20 (not (= x135 x56))) (x73 (not (= x148 x7))) (x4 (not (= x102 x31))) (x28 (not (= x150 x56))) (x47 (not (= x7 x89))) (x122 (not (= x150 x95))) (x37 (not (= x77 x7))) (x154 (not (= x7 x26))) (x142 (not (= x80 x95))) (x100 (not (= x97 x102))) (x151 (not (= x7 x156))) (x157 (not (= x102 x89))) (x147 (not (= x102 x98))) (x32 (not (= x109 x56))) (x43 (not (= x148 x56))) (x53 (not (= x99 x158))) (x126 (not (= x18 x95))) (x21 (not (= x7 x130))) (x107 (not (= x103 x102))) (x138 (not (= x48 x102))) (x91 (not (= x98 x56))) (x119 (not (= x156 x158))) (x36 (not (= x97 x95))) (x131 (not (= x156 x95))) (x19 (not (= x95 x137))) (x63 (not (= x18 x102))) (x155 (not (= x102 x64))) (x38 (not (= x102 x80))) (x35 (not (= x7 x98))) (x123 (not (= x156 x102))) (x118 (not (= x148 x158))) (x60 (not (= x149 x102))) (x93 (not (= x156 x56))) (x9 (not (= x95 x135))) (x58 (not (= x135 x102))) (x139 (not (= x56 x25))) (x62 (not (= x26 x158))) (x115 (not (= x48 x95))) (x79 (not (= x56 x64))) (x105 (not (= x25 x7))) (x39 (not (= x31 x7))) (x83 (not (= x102 x125))) (x87 (not (= x42 x56))) (x41 (not (= x89 x158))) (x30 (not (= x97 x56))) (x152 (not (= x95 x31))) (x116 (not (= x42 x102))) (x153 (not (= x109 x158))) (x117 (not (= x102 x130))) (x40 (not (= x18 x7))) (x34 (not (= x102 x96))) (x120 (not (= x7 x137))) (x1 (not (= x7 x51))) (x76 (not (= x56 x96))) (x54 (not (= x158 x149))) (x52 (not (= x102 x137))) (x88 (not (= x96 x7))) (x133 (not (= x95 x25))) (x128 (not (= x135 x158))) (x68 (not (= x95 x130))) (x45 (not (= x102 x148))) (x46 (not (= x158 x64))) (x22 (not (= x56 x48))) (x15 (not (= x158 x97))) (x104 (not (= x96 x158))) (x134 (not (= x18 x158))) (x86 (not (= x158 x31))) (x124 (not (= x158 x125))) (x144 (not (= x56 x31))) (x74 (not (= x109 x95))) (x143 (not (= x56 x99))) (x16 (not (= x26 x56))) (x140 (not (= x56 x77))) (x78 (not (= x25 x158))) (x57 (not (= x99 x102))) (x3 (not (= x158 x103))) (x72 (not (= x137 x56))) (x33 (not (= x7 x80))) (x106 (not (= x51 x56))) (x92 (not (= x80 x158))) (x69 (not (= x7 x48))) (x132 (not (= x56 x125))) (x90 (not (= x7 x64))) (x136 (not (= x95 x89))) (x113 (not (= x109 x102))) (x23 (not (= x102 x25))) (x6 (not (= x109 x7))) (x49 (not (= x135 x7))) (x61 (not (= x130 x56))) (x110 (not (= x158 x150))) (x12 (not (= x77 x95))) (x27 (not (= x99 x7))) (x81 (not (= x102 x77))) (x114 (not (= x103 x7))) (x55 (not (= x102 x26))) (x24 (not (= x98 x158))) (x50 (not (= x89 x56))) (x141 (not (= x95 x26))) (x146 (not (= x95 x42))) (x85 (not (= x56 x18))) (x2 (not (= x158 x48))) (x101 (not (= x7 x150))) (x127 (not (= x51 x158))) (x121 (not (= x95 x64))) (x66 (not (= x7 x125))) (x145 (not (= x51 x102))) (x65 (not (= x95 x125))) (x59 (not (= x80 x56))) (x82 (not (= x7 x42))) (x71 (not (= x95 x96))) (x11 (not (= x95 x148))) (x70 (not (= x158 x130))) (x111 (not (= x42 x158))) (x29 (not (= x56 x103))) (x10 (not (= x77 x158))) (x75 (not (= x56 x149)))) (or (and (and (and (or x53 x111) (and (or x110 x92) (and (or x94 x41) (or x46 x78)))) (or x86 x86)) (and (and (and (and (or x10 x24) (and (and (or x3 x153) (or x104 x15)) (or x2 x2))) (or x110 x92)) (and (and (or x94 x41) (and (and (and (or x119 x119) (or x124 x54)) (or x3 x153)) (or x62 x128))) (and (or x46 x78) (and (or x127 x134) (and (and (or x54 x124) (or x118 x118)) (or x15 x104)))))) (and (or x53 x111) (and (or x70 x70) (and (and (or x127 x134) (or x128 x62)) (or x24 x10)))))) (or (or (or (and (and (and (or x146 x44) (and (and (or x67 x12) (and (or x126 x5) (or x9 x141))) (or x68 x68))) (and (and (and (or x136 x19) (and (and (and (or x131 x131) (or x108 x65)) (or x17 x74)) (or x141 x9))) (and (and (and (or x71 x36) (and (or x11 x11) (or x65 x108))) (or x5 x126)) (or x133 x121))) (and (and (or x67 x12) (and (and (or x71 x36) (or x17 x74)) (or x115 x115))) (or x142 x122)))) (and (or x152 x152) (and (and (or x142 x122) (and (or x19 x136) (or x133 x121))) (or x146 x44)))) (and (and (and (and (and (and (or x154 x49) (and (and (or x151 x151) (or x8 x66)) (or x6 x114))) (or x47 x120)) (and (and (and (and (or x73 x73) (or x66 x8)) (or x88 x14)) (or x1 x40)) (or x105 x90))) (and (or x101 x33) (and (and (or x69 x69) (and (or x114 x6) (or x88 x14))) (or x35 x37)))) (and (or x82 x27) (and (and (or x35 x37) (and (or x1 x40) (or x154 x49))) (or x21 x21)))) (and (or x39 x39) (and (and (or x101 x33) (and (or x105 x90) (or x120 x47))) (or x82 x27))))) (and (and (and (or x57 x116) (and (or x38 x84) (and (or x157 x52) (or x23 x155)))) (or x4 x4)) (and (and (and (or x38 x84) (and (and (and (or x100 x34) (or x107 x113)) (or x138 x138)) (or x81 x147))) (and (and (or x52 x157) (and (and (or x113 x107) (and (or x60 x83) (or x123 x123))) (or x58 x55))) (and (or x155 x23) (and (or x145 x63) (and (and (or x45 x45) (or x60 x83)) (or x100 x34)))))) (and (or x57 x116) (and (and (and (or x58 x55) (or x145 x63)) (or x147 x81)) (or x117 x117)))))) (and (and (and (or x143 x87) (and (or x61 x61) (and (or x140 x91) (and (or x106 x85) (or x20 x16))))) (and (and (and (and (or x85 x106) (and (and (or x75 x132) (or x43 x43)) (or x30 x76))) (or x79 x139)) (and (and (or x16 x20) (and (and (or x132 x75) (or x93 x93)) (or x29 x32))) (or x72 x50))) (and (or x28 x59) (and (or x91 x140) (and (or x22 x22) (and (or x32 x29) (or x76 x30))))))) (and (and (and (or x59 x28) (and (or x79 x139) (or x50 x72))) (or x87 x143)) (or x144 x144))))))))
(assert (not (and (and (and (= (x13 x95 x95) x102) (= (x13 x102 x95) x56)) (= x158 (x13 x56 x56))) (= (x13 x102 x158) x7))))
(assert (not (and (= x95 (x13 x7 x56)) (and (= x56 (x13 x158 x158)) (and (= x158 (x13 x7 x102)) (= x7 (x13 x102 x102)))))))
(assert (not (and (and (and (= x56 (x13 x102 x95)) (= (x13 x95 x95) x102)) (= (x13 x56 x56) x7)) (= x158 (x13 x102 x7)))))
(assert (not (and (= x95 (x13 x158 x7)) (and (and (= x158 (x13 x102 x102)) (= x56 (x13 x158 x102))) (= (x13 x56 x56) x7)))))
(assert (not (and (= (x13 x7 x158) x95) (and (= x158 (x13 x102 x102)) (and (= x102 (x13 x7 x56)) (= (x13 x56 x56) x7))))))
(assert (not (and (= x158 (x13 x56 x102)) (and (= x102 (x13 x7 x7)) (and (= (x13 x95 x95) x56) (= (x13 x56 x95) x7))))))
(assert (not (and (and (= (x13 x95 x95) x56) (and (= x158 (x13 x7 x7)) (= x95 (x13 x158 x7)))) (= (x13 x158 x56) x102))))
(assert (not (and (and (= (x13 x102 x102) x158) (and (= (x13 x7 x7) x56) (= (x13 x56 x7) x102))) (= (x13 x56 x158) x95))))
(assert (let ((x11 (x13 x56 x56)) (x17 (x13 x158 x158)) (x65 (x13 x102 x102)) (x108 (x13 x7 x7)) (x131 (x13 x95 x95))) (or (and (not (= x158 x17)) (and (not (= x11 x158)) (and (and (not (= x131 x158)) (not (= x158 x108))) (not (= x158 x65))))) (or (or (and (not (= x102 x17)) (and (and (and (not (= x102 x131)) (not (= x108 x102))) (not (= x102 x65))) (not (= x102 x11)))) (or (and (not (= x17 x7)) (and (and (not (= x65 x7)) (and (not (= x108 x7)) (not (= x7 x131)))) (not (= x11 x7)))) (and (and (and (not (= x95 x65)) (and (not (= x95 x131)) (not (= x108 x95)))) (not (= x11 x95))) (not (= x95 x17))))) (and (not (= x56 x17)) (and (not (= x11 x56)) (and (not (= x56 x65)) (and (not (= x131 x56)) (not (= x56 x108))))))))))
(assert (not (and (and (and (= (x13 x102 x56) x95) (= (x13 x56 x56) x102)) (= (x13 x95 x95) x158)) (= x7 (x13 x102 x158)))))
(assert (not (and (= (x13 x102 x95) x158) (and (= (x13 x56 x56) x95) (and (= x56 (x13 x102 x7)) (= x102 (x13 x7 x7)))))))
(assert (not (and (and (= (x13 x7 x7) x56) (and (= (x13 x95 x95) x158) (= (x13 x158 x95) x7))) (= (x13 x158 x56) x102))))
(assert (not (and (and (= x102 (x13 x95 x95)) (and (= (x13 x56 x158) x95) (= x56 (x13 x158 x158)))) (= (x13 x56 x102) x7))))
(assert (let ((x12 (x13 x102 x158)) (x11 (x13 x95 x56)) (x9 (x13 x102 x95)) (x5 (x13 x102 x102)) (x71 (x13 x7 x7)) (x136 (x13 x56 x102)) (x19 (x13 x56 x7)) (x74 (x13 x7 x95)) (x67 (x13 x102 x56)) (x108 (x13 x95 x7)) (x126 (x13 x102 x7)) (x152 (x13 x158 x158)) (x146 (x13 x158 x56)) (x17 (x13 x95 x158)) (x115 (x13 x7 x56)) (x133 (x13 x56 x56)) (x36 (x13 x7 x102)) (x121 (x13 x56 x158)) (x122 (x13 x158 x95)) (x65 (x13 x95 x102)) (x141 (x13 x7 x158)) (x68 (x13 x56 x95)) (x44 (x13 x158 x102)) (x131 (x13 x95 x95)) (x142 (x13 x158 x7))) (or (or (or (and (not (= x158 (x13 x12 x12))) (and (and (and (not (= (x13 x9 x9) x95)) (not (= x7 (x13 x126 x126)))) (not (= x102 (x13 x5 x5)))) (not (= x56 (x13 x67 x67))))) (or (and (and (not (= (x13 x115 x115) x56)) (and (and (not (= x95 (x13 x74 x74))) (not (= (x13 x71 x71) x7))) (not (= (x13 x36 x36) x102)))) (not (= (x13 x141 x141) x158))) (and (and (and (and (not (= (x13 x108 x108) x7)) (not (= (x13 x131 x131) x95))) (not (= x102 (x13 x65 x65)))) (not (= (x13 x11 x11) x56))) (not (= (x13 x17 x17) x158))))) (and (not (= x158 (x13 x121 x121))) (and (and (and (not (= x7 (x13 x19 x19))) (not (= x95 (x13 x68 x68)))) (not (= (x13 x136 x136) x102))) (not (= x56 (x13 x133 x133)))))) (and (and (not (= (x13 x146 x146) x56)) (and (not (= x102 (x13 x44 x44))) (and (not (= x95 (x13 x122 x122))) (not (= x7 (x13 x142 x142)))))) (not (= (x13 x152 x152) x158))))))
(assert (not (and (and (and (= x102 (x13 x95 x95)) (= x7 (x13 x102 x95))) (= x56 (x13 x7 x7))) (= x158 (x13 x102 x56)))))
(assert (not (and (= (x13 x95 x158) x56) (and (= x158 (x13 x102 x102)) (and (= x95 (x13 x7 x7)) (= (x13 x95 x7) x102))))))
(assert (not (and (= x56 (x13 x102 x158)) (and (= (x13 x7 x7) x158) (and (= (x13 x95 x95) x102) (= (x13 x102 x95) x7))))))
(assert (not (and (= (x13 x95 x7) x56) (and (and (= (x13 x158 x158) x95) (= (x13 x95 x158) x102)) (= x7 (x13 x102 x102))))))
(assert (not (and (= (x13 x56 x95) x158) (and (= x95 (x13 x7 x7)) (and (= (x13 x56 x102) x7) (= x56 (x13 x102 x102)))))))
(assert (not (and (= (x13 x56 x7) x95) (and (and (= x56 (x13 x158 x158)) (= x102 (x13 x56 x158))) (= (x13 x102 x102) x7)))))
(assert (not (and (and (= (x13 x7 x7) x56) (and (= x7 (x13 x95 x102)) (= x95 (x13 x102 x102)))) (= x158 (x13 x95 x56)))))
(assert (not (and (= x158 (x13 x95 x56)) (and (and (= x95 (x13 x7 x7)) (= x102 (x13 x95 x7))) (= (x13 x102 x102) x56)))))
(assert (not (and (= x7 (x13 x102 x56)) (and (and (= (x13 x102 x95) x158) (= x102 (x13 x95 x95))) (= (x13 x158 x158) x56)))))
(assert (not (and (= (x13 x158 x56) x7) (and (and (= x158 (x13 x95 x95)) (= (x13 x158 x95) x102)) (= x56 (x13 x102 x102))))))
(assert (not (and (= x158 (x13 x56 x7)) (and (and (= (x13 x56 x102) x95) (= (x13 x102 x102) x56)) (= x7 (x13 x95 x95))))))
(assert (not (and (= (x13 x95 x102) x158) (and (= x102 (x13 x7 x7)) (and (= x95 (x13 x56 x56)) (= (x13 x95 x56) x7))))))
(assert (not (and (= (x13 x158 x56) x95) (and (= x56 (x13 x7 x7)) (and (= x158 (x13 x102 x102)) (= x7 (x13 x158 x102)))))))
(assert (not (and (= (x13 x7 x158) x102) (and (and (= x56 (x13 x7 x95)) (= (x13 x95 x95) x7)) (= x158 (x13 x56 x56))))))
(assert (not (and (= x7 (x13 x158 x56)) (and (= x56 (x13 x95 x95)) (and (= x158 (x13 x102 x102)) (= (x13 x158 x102) x95))))))
(assert (not (and (and (and (= x102 (x13 x56 x56)) (= (x13 x102 x56) x158)) (= x7 (x13 x158 x158))) (= x95 (x13 x102 x7)))))
(assert (not (and (and (= x102 (x13 x56 x56)) (and (= x56 (x13 x158 x95)) (= x158 (x13 x95 x95)))) (= x7 (x13 x158 x102)))))
(assert (not (and (and (and (= x102 (x13 x158 x95)) (= x158 (x13 x95 x95))) (= (x13 x102 x102) x7)) (= (x13 x158 x7) x56))))
(assert (not (and (and (= (x13 x102 x102) x56) (and (= (x13 x158 x158) x95) (= (x13 x95 x158) x102))) (= x7 (x13 x95 x56)))))
(assert (not (and (= x102 (x13 x95 x158)) (and (and (= (x13 x7 x7) x95) (= x56 (x13 x95 x7))) (= (x13 x56 x56) x158)))))
(assert (not (and (= (x13 x158 x95) x102) (and (= x95 (x13 x56 x56)) (and (= (x13 x7 x7) x158) (= (x13 x158 x7) x56))))))
(assert (not (and (= x56 (x13 x7 x102)) (and (and (= (x13 x7 x158) x95) (= (x13 x158 x158) x7)) (= (x13 x95 x95) x102)))))
(assert (not (and (and (= x7 (x13 x95 x95)) (and (= x95 (x13 x102 x56)) (= (x13 x56 x56) x102))) (= x158 (x13 x102 x7)))))
(assert (not (and (and (and (= x7 (x13 x95 x95)) (= (x13 x7 x95) x102)) (= x158 (x13 x102 x102))) (= (x13 x7 x158) x56))))
(assert (not (and (= (x13 x158 x102) x95) (and (= (x13 x7 x7) x102) (and (= (x13 x56 x56) x158) (= x7 (x13 x158 x56)))))))
(assert (not (and (= (x13 x95 x7) x102) (and (= (x13 x158 x158) x7) (and (= x95 (x13 x56 x56)) (= (x13 x95 x56) x158))))))
(assert (not (and (= (x13 x7 x158) x102) (and (and (= x95 (x13 x7 x56)) (= x7 (x13 x56 x56))) (= (x13 x95 x95) x158)))))
(assert (not (and (= (x13 x56 x95) x102) (and (and (= x56 (x13 x158 x158)) (= x7 (x13 x56 x158))) (= (x13 x7 x7) x95)))))
(assert (not (and (= x7 (x13 x102 x56)) (and (and (= (x13 x102 x158) x95) (= (x13 x158 x158) x102)) (= x56 (x13 x95 x95))))))
(assert (not (and (and (and (= x56 (x13 x7 x102)) (= x7 (x13 x102 x102))) (= x95 (x13 x56 x56))) (= (x13 x7 x95) x158))))
(assert (not (and (= x102 (x13 x158 x95)) (and (= (x13 x7 x7) x95) (and (= (x13 x56 x56) x158) (= x7 (x13 x158 x56)))))))
(assert (not (and (= (x13 x158 x102) x56) (and (and (= x158 (x13 x95 x95)) (= (x13 x158 x95) x7)) (= (x13 x7 x7) x102)))))
(assert (not (and (= x102 (x13 x7 x56)) (and (and (= (x13 x95 x95) x7) (= (x13 x7 x95) x158)) (= x56 (x13 x158 x158))))))
(assert (not (and (and (and (= x7 (x13 x95 x56)) (= (x13 x56 x56) x95)) (= x158 (x13 x7 x7))) (= (x13 x95 x158) x102))))
(assert (not (and (= (x13 x7 x95) x56) (and (and (= x158 (x13 x7 x102)) (= x7 (x13 x102 x102))) (= x95 (x13 x158 x158))))))
(assert (not (and (= x56 (x13 x95 x158)) (and (= (x13 x7 x7) x158) (and (= x95 (x13 x102 x102)) (= x7 (x13 x95 x102)))))))
(assert (not (and (and (and (= (x13 x102 x158) x7) (= x102 (x13 x158 x158))) (= x95 (x13 x7 x7))) (= (x13 x102 x95) x56))))
(assert (not (and (and (= (x13 x7 x7) x56) (and (= x102 (x13 x158 x158)) (= x7 (x13 x102 x158)))) (= x95 (x13 x102 x56)))))
(assert (not (and (and (and (= (x13 x56 x102) x7) (= x56 (x13 x102 x102))) (= (x13 x7 x7) x158)) (= x95 (x13 x56 x158)))))
(assert (or (and (and (not (= (x13 x56 x158) x56)) (and (not (= (x13 x102 x158) x102)) (and (not (= x95 (x13 x95 x158))) (not (= x7 (x13 x7 x158)))))) (not (= (x13 x158 x158) x158))) (or (and (and (and (and (not (= x95 (x13 x95 x56))) (not (= (x13 x7 x56) x7))) (not (= (x13 x102 x56) x102))) (not (= (x13 x56 x56) x56))) (not (= x158 (x13 x158 x56)))) (or (and (not (= x158 (x13 x158 x102))) (and (and (and (not (= x7 (x13 x7 x102))) (not (= (x13 x95 x102) x95))) (not (= (x13 x102 x102) x102))) (not (= x56 (x13 x56 x102))))) (or (and (not (= (x13 x158 x7) x158)) (and (not (= x56 (x13 x56 x7))) (and (not (= x102 (x13 x102 x7))) (and (not (= (x13 x95 x7) x95)) (not (= (x13 x7 x7) x7)))))) (and (and (not (= x56 (x13 x56 x95))) (and (and (not (= x7 (x13 x7 x95))) (not (= (x13 x95 x95) x95))) (not (= x102 (x13 x102 x95))))) (not (= x158 (x13 x158 x95)))))))))
(assert (not (and (= (x13 x7 x158) x56) (and (and (= x95 (x13 x7 x102)) (= x7 (x13 x102 x102))) (= x158 (x13 x95 x95))))))
(assert (not (and (= x7 (x13 x56 x95)) (and (= x95 (x13 x158 x158)) (and (= x158 (x13 x56 x102)) (= x56 (x13 x102 x102)))))))
(assert (not (and (and (= (x13 x102 x102) x7) (and (= x56 (x13 x95 x95)) (= (x13 x56 x95) x102))) (= x158 (x13 x56 x7)))))
(assert (not (and (and (and (= (x13 x95 x102) x158) (= x95 (x13 x102 x102))) (= (x13 x158 x158) x7)) (= (x13 x95 x7) x56))))
(assert (not (and (and (and (= x95 (x13 x158 x56)) (= (x13 x56 x56) x158)) (= x102 (x13 x95 x95))) (= (x13 x158 x102) x7))))
(assert (not (and (= x95 (x13 x158 x7)) (and (= (x13 x102 x102) x7) (and (= x158 (x13 x56 x56)) (= (x13 x158 x56) x102))))))
(assert (not (and (= (x13 x158 x7) x102) (and (= (x13 x95 x95) x7) (and (= (x13 x158 x56) x95) (= x158 (x13 x56 x56)))))))
(assert (not (and (and (= (x13 x56 x56) x7) (and (= (x13 x95 x102) x56) (= x95 (x13 x102 x102)))) (= x158 (x13 x95 x7)))))
(assert (not (and (= (x13 x56 x158) x102) (and (and (= x56 (x13 x95 x95)) (= x7 (x13 x56 x95))) (= x158 (x13 x7 x7))))))
(assert (let ((x11 (x13 x56 x56)) (x17 (x13 x158 x158)) (x131 (x13 x95 x95)) (x108 (x13 x7 x7)) (x65 (x13 x102 x102))) (or (= (x13 x17 x17) x158) (or (or (or (= (x13 x108 x108) x7) (= x95 (x13 x131 x131))) (= (x13 x65 x65) x102)) (= (x13 x11 x11) x56)))))
(assert (not (and (= x95 (x13 x7 x102)) (and (and (= x158 (x13 x7 x56)) (= (x13 x56 x56) x7)) (= x102 (x13 x158 x158))))))
(assert (not (and (= x95 (x13 x7 x158)) (and (and (= (x13 x102 x102) x7) (= (x13 x7 x102) x56)) (= (x13 x56 x56) x158)))))
(assert (not (and (and (= x102 (x13 x158 x158)) (and (= x56 (x13 x95 x95)) (= x158 (x13 x56 x95)))) (= x7 (x13 x56 x102)))))
(assert (not (and (and (= x158 (x13 x102 x102)) (and (= (x13 x56 x95) x102) (= x56 (x13 x95 x95)))) (= x7 (x13 x56 x158)))))
(assert (not (and (and (and (= x95 (x13 x102 x158)) (= x102 (x13 x158 x158))) (= x7 (x13 x95 x95))) (= x56 (x13 x102 x7)))))
(assert (not (and (= (x13 x7 x102) x158) (and (= (x13 x56 x56) x102) (and (= x56 (x13 x7 x95)) (= (x13 x95 x95) x7))))))
(assert (not (and (and (= x95 (x13 x102 x102)) (and (= x158 (x13 x56 x56)) (= x102 (x13 x158 x56)))) (= x7 (x13 x158 x95)))))
(assert (not (and (= (x13 x95 x158) x7) (and (= (x13 x102 x102) x158) (and (= (x13 x95 x56) x102) (= x95 (x13 x56 x56)))))))
(assert (not (and (= (x13 x56 x102) x95) (and (and (= (x13 x56 x7) x158) (= x56 (x13 x7 x7))) (= x102 (x13 x158 x158))))))
(assert (not (and (and (and (= x7 (x13 x158 x158)) (= x102 (x13 x7 x158))) (= x56 (x13 x102 x102))) (= (x13 x7 x56) x95))))
(assert (not (and (= (x13 x7 x95) x56) (and (and (= (x13 x7 x158) x102) (= (x13 x158 x158) x7)) (= x95 (x13 x102 x102))))))
(assert (not (and (and (and (= x56 (x13 x7 x7)) (= (x13 x56 x7) x95)) (= (x13 x95 x95) x102)) (= (x13 x56 x102) x158))))
(assert (or (or (or (and (not (= (x13 (x13 x102 x158) x102) x158)) (and (and (not (= x102 (x13 (x13 x102 x102) x102))) (and (not (= x7 (x13 (x13 x102 x7) x102))) (not (= (x13 (x13 x102 x95) x102) x95)))) (not (= x56 (x13 (x13 x102 x56) x102))))) (or (and (not (= (x13 (x13 x95 x158) x95) x158)) (and (and (and (not (= x7 (x13 (x13 x95 x7) x95))) (not (= x95 (x13 (x13 x95 x95) x95)))) (not (= x102 (x13 (x13 x95 x102) x95)))) (not (= x56 (x13 (x13 x95 x56) x95))))) (and (not (= (x13 (x13 x7 x158) x7) x158)) (and (and (and (not (= (x13 (x13 x7 x7) x7) x7)) (not (= x95 (x13 (x13 x7 x95) x7)))) (not (= x102 (x13 (x13 x7 x102) x7)))) (not (= x56 (x13 (x13 x7 x56) x7))))))) (and (not (= (x13 (x13 x56 x158) x56) x158)) (and (not (= x56 (x13 (x13 x56 x56) x56))) (and (and (not (= (x13 (x13 x56 x7) x56) x7)) (not (= x95 (x13 (x13 x56 x95) x56)))) (not (= x102 (x13 (x13 x56 x102) x56))))))) (and (and (and (and (not (= (x13 (x13 x158 x95) x158) x95)) (not (= (x13 (x13 x158 x7) x158) x7))) (not (= (x13 (x13 x158 x102) x158) x102))) (not (= (x13 (x13 x158 x56) x158) x56))) (not (= x158 (x13 (x13 x158 x158) x158))))))
(assert (not (and (= (x13 x95 x158) x7) (and (and (= (x13 x102 x102) x95) (= x56 (x13 x95 x102))) (= (x13 x56 x56) x158)))))
(assert (not (and (and (= (x13 x7 x7) x102) (and (= (x13 x158 x158) x95) (= x7 (x13 x95 x158)))) (= x56 (x13 x95 x102)))))
(assert (not (and (and (= (x13 x56 x56) x102) (and (= x158 (x13 x7 x7)) (= (x13 x158 x7) x56))) (= x95 (x13 x158 x102)))))
(assert (not (and (and (and (= (x13 x95 x95) x102) (= (x13 x102 x95) x158)) (= x7 (x13 x158 x158))) (= (x13 x102 x7) x56))))
(assert (not (and (= (x13 x158 x95) x56) (and (and (= x102 (x13 x158 x7)) (= x158 (x13 x7 x7))) (= (x13 x102 x102) x95)))))
(check-sat)
(exit)
